20	5
0	9	4	1	10	7	5	6	16	2	3
1	1	11
2	2	20	8
3	0
4	1	12
5	1	15
6	1	11
7	1	10
8	1	19
9	0
10	1	6
11	1	17
12	2	13	19
13	1	9
14	1	20
15	1	12
16	1	7
17	1	18
18	1	14
19	1	21
20	1	21
21	0
0	0	0	0	0	0	0
1	1	2	4	5	1	5
2	6	4	2	3	5	3
3	9	1	5	1	2	1
4	4	1	1	3	3	2
5	10	4	1	1	1	2
6	1	1	2	5	3	2
7	5	5	3	2	2	2
8	10	1	3	5	3	1
9	7	3	5	5	1	3
10	2	5	1	1	3	1
11	7	5	5	2	5	5
12	2	4	3	3	2	3
13	4	1	5	2	4	5
14	2	5	4	4	5	3
15	9	3	1	4	3	3
16	8	4	5	2	2	3
17	6	3	4	4	5	3
18	4	4	2	1	4	5
19	2	3	4	2	3	1
20	10	5	4	4	2	2
21	0	0	0	0	0	0
9	9	9	8	8
